(set-option :produce-models true)
(set-option :produce-unsat-cores true)
(set-option :produce-interpolants true)
(set-option :interpolant-check-mode true)
(set-option :proof-transformation LU)
(set-logic ALL)
(set-info :source |SMT script generated on 2024-03-31T00:13:20+01:00 by Ultimate (https://ultimate.informatik.uni-freiburg.de/)|)
(set-info :smt-lib-version 2.5)
(set-info :category "industrial")
(set-info :ultimate-id recursified_simple_array_index_value_3.i_AllErrorsAtOnce_Iteration2)
(declare-fun |c_old(#valid)| () (Array Int Int))
(declare-fun |c_old(#valid)_primed| () (Array Int Int))
(declare-fun |c_#valid| () (Array Int Int))
(declare-fun |c_#valid_primed| () (Array Int Int))
(declare-fun |c_old(#length)| () (Array Int Int))
(declare-fun |c_old(#length)_primed| () (Array Int Int))
(declare-fun |c_#length| () (Array Int Int))
(declare-fun |c_#length_primed| () (Array Int Int))
(declare-fun |c_old(#memory_int#0)| () (Array Int (Array Int Int)))
(declare-fun |c_old(#memory_int#0)_primed| () (Array Int (Array Int Int)))
(declare-fun |c_#memory_int#0| () (Array Int (Array Int Int)))
(declare-fun |c_#memory_int#0_primed| () (Array Int (Array Int Int)))
(declare-fun |c_old(#memory_int#1)| () (Array Int (Array Int Int)))
(declare-fun |c_old(#memory_int#1)_primed| () (Array Int (Array Int Int)))
(declare-fun |c_#memory_int#1| () (Array Int (Array Int Int)))
(declare-fun |c_#memory_int#1_primed| () (Array Int (Array Int Int)))
(declare-fun |c_old(#memory_int#2)| () (Array Int (Array Int Int)))
(declare-fun |c_old(#memory_int#2)_primed| () (Array Int (Array Int Int)))
(declare-fun |c_#memory_int#2| () (Array Int (Array Int Int)))
(declare-fun |c_#memory_int#2_primed| () (Array Int (Array Int Int)))
(declare-fun |c_old(#memory_int#3)| () (Array Int (Array Int Int)))
(declare-fun |c_old(#memory_int#3)_primed| () (Array Int (Array Int Int)))
(declare-fun |c_#memory_int#3| () (Array Int (Array Int Int)))
(declare-fun |c_#memory_int#3_primed| () (Array Int (Array Int Int)))
(declare-fun |c_old(#StackHeapBarrier)| () Int)
(declare-fun |c_old(#StackHeapBarrier)_primed| () Int)
(declare-fun |c_#StackHeapBarrier| () Int)
(declare-fun |c_#StackHeapBarrier_primed| () Int)
(declare-fun |c_reach_error_#t~nondet0.base| () Int)
(declare-fun |c_reach_error_#t~nondet0.base_primed| () Int)
(declare-fun |c_reach_error_#t~nondet0.offset| () Int)
(declare-fun |c_reach_error_#t~nondet0.offset_primed| () Int)
(declare-fun |c_#Ultimate.allocInit_~size| () Int)
(declare-fun |c_#Ultimate.allocInit_~size_primed| () Int)
(declare-fun |c_#Ultimate.allocInit_ptrBase| () Int)
(declare-fun |c_#Ultimate.allocInit_ptrBase_primed| () Int)
(declare-fun |c_write~init~int#3_#value| () Int)
(declare-fun |c_write~init~int#3_#value_primed| () Int)
(declare-fun |c_write~init~int#3_#ptr.base| () Int)
(declare-fun |c_write~init~int#3_#ptr.base_primed| () Int)
(declare-fun |c_write~init~int#3_#ptr.offset| () Int)
(declare-fun |c_write~init~int#3_#ptr.offset_primed| () Int)
(declare-fun |c_write~init~int#3_#sizeOfWrittenType| () Int)
(declare-fun |c_write~init~int#3_#sizeOfWrittenType_primed| () Int)
(declare-fun |c_read~int#3_#ptr.base| () Int)
(declare-fun |c_read~int#3_#ptr.base_primed| () Int)
(declare-fun |c_read~int#3_#ptr.offset| () Int)
(declare-fun |c_read~int#3_#ptr.offset_primed| () Int)
(declare-fun |c_read~int#3_#sizeOfReadType| () Int)
(declare-fun |c_read~int#3_#sizeOfReadType_primed| () Int)
(declare-fun |c_read~int#3_#value| () Int)
(declare-fun |c_read~int#3_#value_primed| () Int)
(declare-fun |c_read~int#2_#ptr.base| () Int)
(declare-fun |c_read~int#2_#ptr.base_primed| () Int)
(declare-fun |c_read~int#2_#ptr.offset| () Int)
(declare-fun |c_read~int#2_#ptr.offset_primed| () Int)
(declare-fun |c_read~int#2_#sizeOfReadType| () Int)
(declare-fun |c_read~int#2_#sizeOfReadType_primed| () Int)
(declare-fun |c_read~int#2_#value| () Int)
(declare-fun |c_read~int#2_#value_primed| () Int)
(declare-fun |c_read~int#1_#ptr.base| () Int)
(declare-fun |c_read~int#1_#ptr.base_primed| () Int)
(declare-fun |c_read~int#1_#ptr.offset| () Int)
(declare-fun |c_read~int#1_#ptr.offset_primed| () Int)
(declare-fun |c_read~int#1_#sizeOfReadType| () Int)
(declare-fun |c_read~int#1_#sizeOfReadType_primed| () Int)
(declare-fun |c_read~int#1_#value| () Int)
(declare-fun |c_read~int#1_#value_primed| () Int)
(declare-fun |c_read~int#0_#ptr.base| () Int)
(declare-fun |c_read~int#0_#ptr.base_primed| () Int)
(declare-fun |c_read~int#0_#ptr.offset| () Int)
(declare-fun |c_read~int#0_#ptr.offset_primed| () Int)
(declare-fun |c_read~int#0_#sizeOfReadType| () Int)
(declare-fun |c_read~int#0_#sizeOfReadType_primed| () Int)
(declare-fun |c_read~int#0_#value| () Int)
(declare-fun |c_read~int#0_#value_primed| () Int)
(declare-fun |c_main_#res| () Int)
(declare-fun |c_main_#res_primed| () Int)
(declare-fun |c_main_~#array~0.base| () Int)
(declare-fun |c_main_~#array~0.base_primed| () Int)
(declare-fun |c_main_~#array~0.offset| () Int)
(declare-fun |c_main_~#array~0.offset_primed| () Int)
(declare-fun |c_main_~#index~0.base| () Int)
(declare-fun |c_main_~#index~0.base_primed| () Int)
(declare-fun |c_main_~#index~0.offset| () Int)
(declare-fun |c_main_~#index~0.offset_primed| () Int)
(declare-fun |c_main_~#tmp~0.base| () Int)
(declare-fun |c_main_~#tmp~0.base_primed| () Int)
(declare-fun |c_main_~#tmp~0.offset| () Int)
(declare-fun |c_main_~#tmp~0.offset_primed| () Int)
(declare-fun |c_write~int#0_#value| () Int)
(declare-fun |c_write~int#0_#value_primed| () Int)
(declare-fun |c_write~int#0_#ptr.base| () Int)
(declare-fun |c_write~int#0_#ptr.base_primed| () Int)
(declare-fun |c_write~int#0_#ptr.offset| () Int)
(declare-fun |c_write~int#0_#ptr.offset_primed| () Int)
(declare-fun |c_write~int#0_#sizeOfWrittenType| () Int)
(declare-fun |c_write~int#0_#sizeOfWrittenType_primed| () Int)
(declare-fun |c_#Ultimate.allocOnStack_~size| () Int)
(declare-fun |c_#Ultimate.allocOnStack_~size_primed| () Int)
(declare-fun |c_#Ultimate.allocOnStack_#res.base| () Int)
(declare-fun |c_#Ultimate.allocOnStack_#res.base_primed| () Int)
(declare-fun |c_#Ultimate.allocOnStack_#res.offset| () Int)
(declare-fun |c_#Ultimate.allocOnStack_#res.offset_primed| () Int)
(declare-fun |c_write~int#1_#value| () Int)
(declare-fun |c_write~int#1_#value_primed| () Int)
(declare-fun |c_write~int#1_#ptr.base| () Int)
(declare-fun |c_write~int#1_#ptr.base_primed| () Int)
(declare-fun |c_write~int#1_#ptr.offset| () Int)
(declare-fun |c_write~int#1_#ptr.offset_primed| () Int)
(declare-fun |c_write~int#1_#sizeOfWrittenType| () Int)
(declare-fun |c_write~int#1_#sizeOfWrittenType_primed| () Int)
(declare-fun |c_write~int#2_#value| () Int)
(declare-fun |c_write~int#2_#value_primed| () Int)
(declare-fun |c_write~int#2_#ptr.base| () Int)
(declare-fun |c_write~int#2_#ptr.base_primed| () Int)
(declare-fun |c_write~int#2_#ptr.offset| () Int)
(declare-fun |c_write~int#2_#ptr.offset_primed| () Int)
(declare-fun |c_write~int#2_#sizeOfWrittenType| () Int)
(declare-fun |c_write~int#2_#sizeOfWrittenType_primed| () Int)
(declare-fun |c_func_to_recursive_line_44_to_45_0_#in~array.base| () Int)
(declare-fun |c_func_to_recursive_line_44_to_45_0_#in~array.base_primed| () Int)
(declare-fun |c_func_to_recursive_line_44_to_45_0_#in~array.offset| () Int)
(declare-fun |c_func_to_recursive_line_44_to_45_0_#in~array.offset_primed| () Int)
(declare-fun |c_func_to_recursive_line_44_to_45_0_#in~index.base| () Int)
(declare-fun |c_func_to_recursive_line_44_to_45_0_#in~index.base_primed| () Int)
(declare-fun |c_func_to_recursive_line_44_to_45_0_#in~index.offset| () Int)
(declare-fun |c_func_to_recursive_line_44_to_45_0_#in~index.offset_primed| () Int)
(declare-fun |c_func_to_recursive_line_44_to_45_0_#t~mem6| () Int)
(declare-fun |c_func_to_recursive_line_44_to_45_0_#t~mem6_primed| () Int)
(declare-fun |c_func_to_recursive_line_44_to_45_0_#t~mem7| () Int)
(declare-fun |c_func_to_recursive_line_44_to_45_0_#t~mem7_primed| () Int)
(declare-fun |c_func_to_recursive_line_44_to_45_0_#t~mem9| () Int)
(declare-fun |c_func_to_recursive_line_44_to_45_0_#t~mem9_primed| () Int)
(declare-fun |c_func_to_recursive_line_44_to_45_0_#t~mem8| () Int)
(declare-fun |c_func_to_recursive_line_44_to_45_0_#t~mem8_primed| () Int)
(declare-fun |c_func_to_recursive_line_44_to_45_0_#t~mem10| () Int)
(declare-fun |c_func_to_recursive_line_44_to_45_0_#t~mem10_primed| () Int)
(declare-fun |c_func_to_recursive_line_44_to_45_0_#t~mem11| () Int)
(declare-fun |c_func_to_recursive_line_44_to_45_0_#t~mem11_primed| () Int)
(declare-fun |c_func_to_recursive_line_44_to_45_0_#t~short12| () Bool)
(declare-fun |c_func_to_recursive_line_44_to_45_0_#t~short12_primed| () Bool)
(declare-fun |c_func_to_recursive_line_44_to_45_0_#t~mem13| () Int)
(declare-fun |c_func_to_recursive_line_44_to_45_0_#t~mem13_primed| () Int)
(declare-fun |c_func_to_recursive_line_44_to_45_0_#t~post14| () Int)
(declare-fun |c_func_to_recursive_line_44_to_45_0_#t~post14_primed| () Int)
(declare-fun c_func_to_recursive_line_44_to_45_0_~array.base () Int)
(declare-fun c_func_to_recursive_line_44_to_45_0_~array.base_primed () Int)
(declare-fun c_func_to_recursive_line_44_to_45_0_~array.offset () Int)
(declare-fun c_func_to_recursive_line_44_to_45_0_~array.offset_primed () Int)
(declare-fun c_func_to_recursive_line_44_to_45_0_~index.base () Int)
(declare-fun c_func_to_recursive_line_44_to_45_0_~index.base_primed () Int)
(declare-fun c_func_to_recursive_line_44_to_45_0_~index.offset () Int)
(declare-fun c_func_to_recursive_line_44_to_45_0_~index.offset_primed () Int)
(declare-fun |c_write~init~int#2_#value| () Int)
(declare-fun |c_write~init~int#2_#value_primed| () Int)
(declare-fun |c_write~init~int#2_#ptr.base| () Int)
(declare-fun |c_write~init~int#2_#ptr.base_primed| () Int)
(declare-fun |c_write~init~int#2_#ptr.offset| () Int)
(declare-fun |c_write~init~int#2_#ptr.offset_primed| () Int)
(declare-fun |c_write~init~int#2_#sizeOfWrittenType| () Int)
(declare-fun |c_write~init~int#2_#sizeOfWrittenType_primed| () Int)
(declare-fun |c_write~init~int#1_#value| () Int)
(declare-fun |c_write~init~int#1_#value_primed| () Int)
(declare-fun |c_write~init~int#1_#ptr.base| () Int)
(declare-fun |c_write~init~int#1_#ptr.base_primed| () Int)
(declare-fun |c_write~init~int#1_#ptr.offset| () Int)
(declare-fun |c_write~init~int#1_#ptr.offset_primed| () Int)
(declare-fun |c_write~init~int#1_#sizeOfWrittenType| () Int)
(declare-fun |c_write~init~int#1_#sizeOfWrittenType_primed| () Int)
(declare-fun |c___assert_perror_fail_#in~__errnum| () Int)
(declare-fun |c___assert_perror_fail_#in~__errnum_primed| () Int)
(declare-fun |c___assert_perror_fail_#in~__file.base| () Int)
(declare-fun |c___assert_perror_fail_#in~__file.base_primed| () Int)
(declare-fun |c___assert_perror_fail_#in~__file.offset| () Int)
(declare-fun |c___assert_perror_fail_#in~__file.offset_primed| () Int)
(declare-fun |c___assert_perror_fail_#in~__line| () Int)
(declare-fun |c___assert_perror_fail_#in~__line_primed| () Int)
(declare-fun |c___assert_perror_fail_#in~__function.base| () Int)
(declare-fun |c___assert_perror_fail_#in~__function.base_primed| () Int)
(declare-fun |c___assert_perror_fail_#in~__function.offset| () Int)
(declare-fun |c___assert_perror_fail_#in~__function.offset_primed| () Int)
(declare-fun |c_write~init~int#0_#value| () Int)
(declare-fun |c_write~init~int#0_#value_primed| () Int)
(declare-fun |c_write~init~int#0_#ptr.base| () Int)
(declare-fun |c_write~init~int#0_#ptr.base_primed| () Int)
(declare-fun |c_write~init~int#0_#ptr.offset| () Int)
(declare-fun |c_write~init~int#0_#ptr.offset_primed| () Int)
(declare-fun |c_write~init~int#0_#sizeOfWrittenType| () Int)
(declare-fun |c_write~init~int#0_#sizeOfWrittenType_primed| () Int)
(declare-fun |c_assume_abort_if_not_#in~cond| () Int)
(declare-fun |c_assume_abort_if_not_#in~cond_primed| () Int)
(declare-fun c_assume_abort_if_not_~cond () Int)
(declare-fun c_assume_abort_if_not_~cond_primed () Int)
(declare-fun |c_write~int#3_#value| () Int)
(declare-fun |c_write~int#3_#value_primed| () Int)
(declare-fun |c_write~int#3_#ptr.base| () Int)
(declare-fun |c_write~int#3_#ptr.base_primed| () Int)
(declare-fun |c_write~int#3_#ptr.offset| () Int)
(declare-fun |c_write~int#3_#ptr.offset_primed| () Int)
(declare-fun |c_write~int#3_#sizeOfWrittenType| () Int)
(declare-fun |c_write~int#3_#sizeOfWrittenType_primed| () Int)
(declare-fun |c_func_to_recursive_line_38_to_41_0_#in~array.base| () Int)
(declare-fun |c_func_to_recursive_line_38_to_41_0_#in~array.base_primed| () Int)
(declare-fun |c_func_to_recursive_line_38_to_41_0_#in~array.offset| () Int)
(declare-fun |c_func_to_recursive_line_38_to_41_0_#in~array.offset_primed| () Int)
(declare-fun |c_func_to_recursive_line_38_to_41_0_#in~index.base| () Int)
(declare-fun |c_func_to_recursive_line_38_to_41_0_#in~index.base_primed| () Int)
(declare-fun |c_func_to_recursive_line_38_to_41_0_#in~index.offset| () Int)
(declare-fun |c_func_to_recursive_line_38_to_41_0_#in~index.offset_primed| () Int)
(declare-fun |c_func_to_recursive_line_38_to_41_0_#in~tmp.base| () Int)
(declare-fun |c_func_to_recursive_line_38_to_41_0_#in~tmp.base_primed| () Int)
(declare-fun |c_func_to_recursive_line_38_to_41_0_#in~tmp.offset| () Int)
(declare-fun |c_func_to_recursive_line_38_to_41_0_#in~tmp.offset_primed| () Int)
(declare-fun |c_func_to_recursive_line_38_to_41_0_#t~mem1| () Int)
(declare-fun |c_func_to_recursive_line_38_to_41_0_#t~mem1_primed| () Int)
(declare-fun |c_func_to_recursive_line_38_to_41_0_#t~mem2| () Int)
(declare-fun |c_func_to_recursive_line_38_to_41_0_#t~mem2_primed| () Int)
(declare-fun |c_func_to_recursive_line_38_to_41_0_#t~mem3| () Int)
(declare-fun |c_func_to_recursive_line_38_to_41_0_#t~mem3_primed| () Int)
(declare-fun |c_func_to_recursive_line_38_to_41_0_#t~mem4| () Int)
(declare-fun |c_func_to_recursive_line_38_to_41_0_#t~mem4_primed| () Int)
(declare-fun |c_func_to_recursive_line_38_to_41_0_#t~mem5| () Int)
(declare-fun |c_func_to_recursive_line_38_to_41_0_#t~mem5_primed| () Int)
(declare-fun c_func_to_recursive_line_38_to_41_0_~array.base () Int)
(declare-fun c_func_to_recursive_line_38_to_41_0_~array.base_primed () Int)
(declare-fun c_func_to_recursive_line_38_to_41_0_~array.offset () Int)
(declare-fun c_func_to_recursive_line_38_to_41_0_~array.offset_primed () Int)
(declare-fun c_func_to_recursive_line_38_to_41_0_~index.base () Int)
(declare-fun c_func_to_recursive_line_38_to_41_0_~index.base_primed () Int)
(declare-fun c_func_to_recursive_line_38_to_41_0_~index.offset () Int)
(declare-fun c_func_to_recursive_line_38_to_41_0_~index.offset_primed () Int)
(declare-fun c_func_to_recursive_line_38_to_41_0_~tmp.base () Int)
(declare-fun c_func_to_recursive_line_38_to_41_0_~tmp.base_primed () Int)
(declare-fun c_func_to_recursive_line_38_to_41_0_~tmp.offset () Int)
(declare-fun c_func_to_recursive_line_38_to_41_0_~tmp.offset_primed () Int)
(declare-fun |c___assert_#in~__assertion.base| () Int)
(declare-fun |c___assert_#in~__assertion.base_primed| () Int)
(declare-fun |c___assert_#in~__assertion.offset| () Int)
(declare-fun |c___assert_#in~__assertion.offset_primed| () Int)
(declare-fun |c___assert_#in~__file.base| () Int)
(declare-fun |c___assert_#in~__file.base_primed| () Int)
(declare-fun |c___assert_#in~__file.offset| () Int)
(declare-fun |c___assert_#in~__file.offset_primed| () Int)
(declare-fun |c___assert_#in~__line| () Int)
(declare-fun |c___assert_#in~__line_primed| () Int)
(declare-fun |c_ULTIMATE.start_#t~ret15| () Int)
(declare-fun |c_ULTIMATE.start_#t~ret15_primed| () Int)
(declare-fun |c___VERIFIER_assert_#in~cond| () Int)
(declare-fun |c___VERIFIER_assert_#in~cond_primed| () Int)
(declare-fun c___VERIFIER_assert_~cond () Int)
(declare-fun c___VERIFIER_assert_~cond_primed () Int)
(declare-fun |c___assert_fail_#in~__assertion.base| () Int)
(declare-fun |c___assert_fail_#in~__assertion.base_primed| () Int)
(declare-fun |c___assert_fail_#in~__assertion.offset| () Int)
(declare-fun |c___assert_fail_#in~__assertion.offset_primed| () Int)
(declare-fun |c___assert_fail_#in~__file.base| () Int)
(declare-fun |c___assert_fail_#in~__file.base_primed| () Int)
(declare-fun |c___assert_fail_#in~__file.offset| () Int)
(declare-fun |c___assert_fail_#in~__file.offset_primed| () Int)
(declare-fun |c___assert_fail_#in~__line| () Int)
(declare-fun |c___assert_fail_#in~__line_primed| () Int)
(declare-fun |c___assert_fail_#in~__function.base| () Int)
(declare-fun |c___assert_fail_#in~__function.base_primed| () Int)
(declare-fun |c___assert_fail_#in~__function.offset| () Int)
(declare-fun |c___assert_fail_#in~__function.offset_primed| () Int)
(declare-fun c_ULTIMATE.dealloc_~addr.base () Int)
(declare-fun c_ULTIMATE.dealloc_~addr.base_primed () Int)
(declare-fun c_ULTIMATE.dealloc_~addr.offset () Int)
(declare-fun c_ULTIMATE.dealloc_~addr.offset_primed () Int)
(declare-fun |c_aux_v_func_to_recursive_line_44_to_45_0_#t~mem9_3| () Int)
(declare-fun |c_aux_v_func_to_recursive_line_44_to_45_0_#t~mem8_3| () Int)
(declare-fun |c_aux_v_func_to_recursive_line_44_to_45_0_#t~mem7_3| () Int)
(declare-fun |c_aux_v_func_to_recursive_line_44_to_45_0_#t~mem10_3| () Int)
(declare-fun |c_aux_v_func_to_recursive_line_44_to_45_0_#t~mem11_3| () Int)
(declare-fun |c_aux_v_ULTIMATE.start_#t~ret15_3| () Int)
(declare-fun c_aux_v_ArrVal_1 () Int)
(declare-fun c_aux_v_ArrVal_4 () Int)
(declare-fun c_aux_v_ArrVal_5 () Int)
(declare-fun c_aux_v_ArrVal_2 () Int)
(declare-fun c_aux_v_ArrVal_3 () Int)
(declare-fun c_aux_v_ArrVal_6 () Int)
(declare-fun c_aux_v_ArrVal_7 () (Array Int Int))
(declare-fun c_aux_v_ArrVal_8 () Int)
(declare-fun |c_aux_v_func_to_recursive_line_44_to_45_0_#t~mem9_4| () Int)
(declare-fun |c_aux_v_func_to_recursive_line_44_to_45_0_#t~mem8_4| () Int)
(declare-fun |c_aux_v_func_to_recursive_line_44_to_45_0_#t~mem7_4| () Int)
(echo "starting trace check")
(push 1)
(declare-fun |#memory_int#0_-1| () (Array Int (Array Int Int)))
(declare-fun |#valid_-1| () (Array Int Int))
(declare-fun |#length_-1| () (Array Int Int))
(declare-fun |#memory_int#2_-1| () (Array Int (Array Int Int)))
(declare-fun |#memory_int#1_-1| () (Array Int (Array Int Int)))
(declare-fun |#memory_int#3_-1| () (Array Int (Array Int Int)))
(declare-fun |old(#memory_int#0)_-1| () (Array Int (Array Int Int)))
(declare-fun |old(#valid)_-1| () (Array Int Int))
(declare-fun |old(#length)_-1| () (Array Int Int))
(declare-fun |old(#memory_int#2)_-1| () (Array Int (Array Int Int)))
(declare-fun |old(#memory_int#1)_-1| () (Array Int (Array Int Int)))
(declare-fun |old(#memory_int#3)_-1| () (Array Int (Array Int Int)))
(declare-fun |#StackHeapBarrier_-1| () Int)
(declare-fun |old(#valid)_3| () (Array Int Int))
(declare-fun |old(#length)_3| () (Array Int Int))
(declare-fun |old(#memory_int#2)_3| () (Array Int (Array Int Int)))
(declare-fun |old(#memory_int#1)_3| () (Array Int (Array Int Int)))
(declare-fun |old(#memory_int#3)_3| () (Array Int (Array Int Int)))
(declare-fun |#valid_3| () (Array Int Int))
(declare-fun |#length_3| () (Array Int Int))
(declare-fun |#memory_int#2_3| () (Array Int (Array Int Int)))
(declare-fun |#memory_int#1_3| () (Array Int (Array Int Int)))
(declare-fun |#memory_int#3_3| () (Array Int (Array Int Int)))
(declare-fun |main_~#tmp~0.offset_4| () Int)
(declare-fun |main_~#index~0.offset_4| () Int)
(declare-fun |main_~#array~0.base_4| () Int)
(declare-fun |#valid_4| () (Array Int Int))
(declare-fun |main_~#array~0.offset_4| () Int)
(declare-fun |#length_4| () (Array Int Int))
(declare-fun |main_~#tmp~0.base_4| () Int)
(declare-fun |main_~#index~0.base_4| () Int)
(declare-fun v_ArrVal_13_fresh_1 () Int)
(declare-fun v_ArrVal_14_fresh_1 () Int)
(declare-fun v_ArrVal_9_fresh_1 () Int)
(declare-fun v_ArrVal_10_fresh_1 () Int)
(declare-fun v_ArrVal_11_fresh_1 () Int)
(declare-fun v_ArrVal_12_fresh_1 () Int)
(declare-fun |old(#memory_int#2)_5| () (Array Int (Array Int Int)))
(declare-fun |old(#memory_int#1)_5| () (Array Int (Array Int Int)))
(declare-fun |old(#memory_int#3)_5| () (Array Int (Array Int Int)))
(declare-fun |#memory_int#2_5| () (Array Int (Array Int Int)))
(declare-fun |#memory_int#1_5| () (Array Int (Array Int Int)))
(declare-fun |#memory_int#3_5| () (Array Int (Array Int Int)))
(declare-fun |main_~#tmp~0.offset_5| () Int)
(declare-fun |func_to_recursive_line_38_to_41_0_#in~tmp.offset_5| () Int)
(declare-fun |func_to_recursive_line_38_to_41_0_#in~array.base_5| () Int)
(declare-fun |func_to_recursive_line_38_to_41_0_#in~array.offset_5| () Int)
(declare-fun |main_~#array~0.base_5| () Int)
(declare-fun |main_~#index~0.offset_5| () Int)
(declare-fun |func_to_recursive_line_38_to_41_0_#in~index.base_5| () Int)
(declare-fun |func_to_recursive_line_38_to_41_0_#in~index.offset_5| () Int)
(declare-fun |main_~#array~0.offset_5| () Int)
(declare-fun |main_~#tmp~0.base_5| () Int)
(declare-fun |func_to_recursive_line_38_to_41_0_#in~tmp.base_5| () Int)
(declare-fun |main_~#index~0.base_5| () Int)
(declare-fun func_to_recursive_line_38_to_41_0_~array.base_6 () Int)
(declare-fun func_to_recursive_line_38_to_41_0_~index.base_6 () Int)
(declare-fun |func_to_recursive_line_38_to_41_0_#t~mem1_6| () Int)
(declare-fun func_to_recursive_line_38_to_41_0_~tmp.offset_6 () Int)
(declare-fun func_to_recursive_line_38_to_41_0_~array.offset_6 () Int)
(declare-fun func_to_recursive_line_38_to_41_0_~index.offset_6 () Int)
(declare-fun func_to_recursive_line_38_to_41_0_~tmp.base_6 () Int)
(declare-fun |func_to_recursive_line_38_to_41_0_#t~mem1_7| () Int)
(declare-fun |#memory_int#1_10| () (Array Int (Array Int Int)))
(declare-fun v_ArrVal_16_fresh_1 () Int)
(declare-fun v_ArrVal_15_fresh_1 () (Array Int Int))
(declare-fun |old(#memory_int#1)_11| () (Array Int (Array Int Int)))
(declare-fun |#memory_int#1_11| () (Array Int (Array Int Int)))
(declare-fun |main_~#array~0.base_11| () Int)
(declare-fun |main_~#index~0.offset_11| () Int)
(declare-fun |func_to_recursive_line_44_to_45_0_#in~index.offset_11| () Int)
(declare-fun |main_~#array~0.offset_11| () Int)
(declare-fun |func_to_recursive_line_44_to_45_0_#in~array.base_11| () Int)
(declare-fun |func_to_recursive_line_44_to_45_0_#in~index.base_11| () Int)
(declare-fun |func_to_recursive_line_44_to_45_0_#in~array.offset_11| () Int)
(declare-fun |main_~#index~0.base_11| () Int)
(declare-fun func_to_recursive_line_44_to_45_0_~index.offset_12 () Int)
(declare-fun func_to_recursive_line_44_to_45_0_~array.offset_12 () Int)
(declare-fun func_to_recursive_line_44_to_45_0_~index.base_12 () Int)
(declare-fun func_to_recursive_line_44_to_45_0_~array.base_12 () Int)
(declare-fun |func_to_recursive_line_44_to_45_0_#t~mem6_12| () Int)
(declare-fun |func_to_recursive_line_44_to_45_0_#t~short12_13| () Bool)
(declare-fun |func_to_recursive_line_44_to_45_0_#t~mem6_13| () Int)
(declare-fun |v_func_to_recursive_line_44_to_45_0_#t~mem9_5_fresh_1| () Int)
(declare-fun |v_func_to_recursive_line_44_to_45_0_#t~mem8_5_fresh_1| () Int)
(declare-fun |v_func_to_recursive_line_44_to_45_0_#t~mem7_5_fresh_1| () Int)
(declare-fun |func_to_recursive_line_44_to_45_0_#t~short12_14| () Bool)
(declare-fun |v_func_to_recursive_line_44_to_45_0_#t~mem10_4_fresh_1| () Int)
(declare-fun |v_func_to_recursive_line_44_to_45_0_#t~mem11_4_fresh_1| () Int)
(declare-fun |__VERIFIER_assert_#in~cond_15| () Int)
(declare-fun |func_to_recursive_line_44_to_45_0_#t~short12_15| () Bool)
(declare-fun __VERIFIER_assert_~cond_16 () Int)
(declare-fun __VERIFIER_assert_~cond_17 () Int)
(assert (! true :named ssa_precond))
(assert (! (not false) :named ssa_postcond))
(assert (! true :named ssa_0_GlobVarAssigCall))
(assert (! true :named ssa_0_LocVarAssigCall))
(assert (! true :named ssa_0_OldVarAssigCall))
(assert (! (and (= (select |#valid_-1| 1) 1) (= (select |#valid_-1| 2) 1) (< 0 |#StackHeapBarrier_-1|) (= 29 (select |#length_-1| 2)) (= (select |#valid_-1| 0) 0) (= (select (select |#memory_int#0_-1| 1) 1) 0) (= (select (select |#memory_int#0_-1| 1) 0) 48) (= (select |#length_-1| 1) 2)) :named ssa_1))
(assert (! true :named ssa_2_return))
(assert (! (and (= |old(#valid)_3| |#valid_3|) (= |old(#memory_int#3)_3| |#memory_int#3_3|) (= |old(#memory_int#2)_3| |#memory_int#2_3|) (= |#length_3| |old(#length)_3|) (= |old(#memory_int#1)_3| |#memory_int#1_3|)) :named ssa_3_GlobVarAssigCall))
(assert (! true :named ssa_3_LocVarAssigCall))
(assert (! (and (= |old(#length)_3| |#length_-1|) (= |#valid_-1| |old(#valid)_3|) (= |old(#memory_int#2)_3| |#memory_int#2_-1|) (= |old(#memory_int#3)_3| |#memory_int#3_-1|) (= |old(#memory_int#1)_3| |#memory_int#1_-1|)) :named ssa_3_OldVarAssigCall))
(assert (! (and (< |#StackHeapBarrier_-1| |main_~#tmp~0.base_4|) (= |main_~#tmp~0.offset_4| 0) (= (select (store (store |#valid_3| |main_~#array~0.base_4| v_ArrVal_13_fresh_1) |main_~#index~0.base_4| v_ArrVal_14_fresh_1) |main_~#tmp~0.base_4|) 0) (not (= |main_~#array~0.base_4| 0)) (not (= |main_~#index~0.base_4| 0)) (= v_ArrVal_9_fresh_1 40000) (< |#StackHeapBarrier_-1| |main_~#index~0.base_4|) (< |#StackHeapBarrier_-1| |main_~#array~0.base_4|) (= |#valid_4| (store (store (store |#valid_3| |main_~#array~0.base_4| v_ArrVal_13_fresh_1) |main_~#index~0.base_4| v_ArrVal_14_fresh_1) |main_~#tmp~0.base_4| v_ArrVal_11_fresh_1)) (= v_ArrVal_13_fresh_1 1) (= (store (store (store |#length_3| |main_~#array~0.base_4| v_ArrVal_9_fresh_1) |main_~#index~0.base_4| v_ArrVal_10_fresh_1) |main_~#tmp~0.base_4| v_ArrVal_12_fresh_1) |#length_4|) (= (select (select |#memory_int#1_3| |main_~#index~0.base_4|) |main_~#index~0.offset_4|) 0) (= (select |#valid_3| |main_~#array~0.base_4|) 0) (= v_ArrVal_14_fresh_1 1) (= v_ArrVal_11_fresh_1 1) (= |main_~#index~0.offset_4| 0) (= 4 v_ArrVal_12_fresh_1) (= |main_~#array~0.offset_4| 0) (= 4 v_ArrVal_10_fresh_1) (= (select (store |#valid_3| |main_~#array~0.base_4| v_ArrVal_13_fresh_1) |main_~#index~0.base_4|) 0) (= (select (select |#memory_int#3_3| |main_~#tmp~0.base_4|) |main_~#tmp~0.offset_4|) 0) (not (= |main_~#tmp~0.base_4| 0))) :named ssa_4))
(assert (! (and (= |old(#memory_int#3)_5| |#memory_int#3_5|) (= |old(#memory_int#2)_5| |#memory_int#2_5|) (= |old(#memory_int#1)_5| |#memory_int#1_5|)) :named ssa_5_GlobVarAssigCall))
(assert (! (and (= |func_to_recursive_line_38_to_41_0_#in~tmp.offset_5| |main_~#tmp~0.offset_4|) (= |func_to_recursive_line_38_to_41_0_#in~tmp.base_5| |main_~#tmp~0.base_4|) (= |func_to_recursive_line_38_to_41_0_#in~index.base_5| |main_~#index~0.base_4|) (= |func_to_recursive_line_38_to_41_0_#in~index.offset_5| |main_~#index~0.offset_4|) (= |func_to_recursive_line_38_to_41_0_#in~array.base_5| |main_~#array~0.base_4|) (= |func_to_recursive_line_38_to_41_0_#in~array.offset_5| |main_~#array~0.offset_4|)) :named ssa_5_LocVarAssigCall))
(assert (! (and (= |old(#memory_int#2)_5| |#memory_int#2_3|) (= |old(#memory_int#3)_5| |#memory_int#3_3|) (= |old(#memory_int#1)_5| |#memory_int#1_3|)) :named ssa_5_OldVarAssigCall))
(assert (! (and (= func_to_recursive_line_38_to_41_0_~array.base_6 |func_to_recursive_line_38_to_41_0_#in~array.base_5|) (= func_to_recursive_line_38_to_41_0_~tmp.offset_6 |func_to_recursive_line_38_to_41_0_#in~tmp.offset_5|) (= func_to_recursive_line_38_to_41_0_~index.base_6 |func_to_recursive_line_38_to_41_0_#in~index.base_5|) (= func_to_recursive_line_38_to_41_0_~tmp.base_6 |func_to_recursive_line_38_to_41_0_#in~tmp.base_5|) (= func_to_recursive_line_38_to_41_0_~array.offset_6 |func_to_recursive_line_38_to_41_0_#in~array.offset_5|) (= (select (select |#memory_int#1_5| func_to_recursive_line_38_to_41_0_~index.base_6) func_to_recursive_line_38_to_41_0_~index.offset_6) |func_to_recursive_line_38_to_41_0_#t~mem1_6|) (= func_to_recursive_line_38_to_41_0_~index.offset_6 |func_to_recursive_line_38_to_41_0_#in~index.offset_5|)) :named ssa_6))
(assert (! (<= 10000 (mod |func_to_recursive_line_38_to_41_0_#t~mem1_6| 4294967296)) :named ssa_7))
(assert (! true :named ssa_8))
(assert (! true :named ssa_9_return))
(assert (! (and (= v_ArrVal_16_fresh_1 0) (= (store (select |#memory_int#1_5| |main_~#index~0.base_4|) |main_~#index~0.offset_4| 0) v_ArrVal_15_fresh_1) (= (store |#memory_int#1_5| |main_~#index~0.base_4| v_ArrVal_15_fresh_1) |#memory_int#1_10|)) :named ssa_10))
(assert (! (= |old(#memory_int#1)_11| |#memory_int#1_11|) :named ssa_11_GlobVarAssigCall))
(assert (! (and (= |func_to_recursive_line_44_to_45_0_#in~array.base_11| |main_~#array~0.base_4|) (= |func_to_recursive_line_44_to_45_0_#in~array.offset_11| |main_~#array~0.offset_4|) (= |func_to_recursive_line_44_to_45_0_#in~index.offset_11| |main_~#index~0.offset_4|) (= |func_to_recursive_line_44_to_45_0_#in~index.base_11| |main_~#index~0.base_4|)) :named ssa_11_LocVarAssigCall))
(assert (! (= |old(#memory_int#1)_11| |#memory_int#1_10|) :named ssa_11_OldVarAssigCall))
(assert (! (and (= |func_to_recursive_line_44_to_45_0_#t~mem6_12| (select (select |#memory_int#1_11| func_to_recursive_line_44_to_45_0_~index.base_12) func_to_recursive_line_44_to_45_0_~index.offset_12)) (= func_to_recursive_line_44_to_45_0_~index.offset_12 |func_to_recursive_line_44_to_45_0_#in~index.offset_11|) (= func_to_recursive_line_44_to_45_0_~index.base_12 |func_to_recursive_line_44_to_45_0_#in~index.base_11|) (= |func_to_recursive_line_44_to_45_0_#in~array.base_11| func_to_recursive_line_44_to_45_0_~array.base_12) (= func_to_recursive_line_44_to_45_0_~array.offset_12 |func_to_recursive_line_44_to_45_0_#in~array.offset_11|)) :named ssa_12))
(assert (! (and (or (and (= (mod |v_func_to_recursive_line_44_to_45_0_#t~mem9_5_fresh_1| 4294967296) (* 2 (mod |v_func_to_recursive_line_44_to_45_0_#t~mem8_5_fresh_1| 2147483648))) |func_to_recursive_line_44_to_45_0_#t~short12_13|) (and (not |func_to_recursive_line_44_to_45_0_#t~short12_13|) (not (= (mod |v_func_to_recursive_line_44_to_45_0_#t~mem9_5_fresh_1| 4294967296) (* 2 (mod |v_func_to_recursive_line_44_to_45_0_#t~mem8_5_fresh_1| 2147483648)))))) (< (mod |func_to_recursive_line_44_to_45_0_#t~mem6_12| 4294967296) 10000) (= |v_func_to_recursive_line_44_to_45_0_#t~mem7_5_fresh_1| (select (select |#memory_int#1_11| func_to_recursive_line_44_to_45_0_~index.base_12) func_to_recursive_line_44_to_45_0_~index.offset_12)) (= |v_func_to_recursive_line_44_to_45_0_#t~mem9_5_fresh_1| (select (select |#memory_int#2_5| func_to_recursive_line_44_to_45_0_~array.base_12) (+ func_to_recursive_line_44_to_45_0_~array.offset_12 (* (ite (<= (mod |v_func_to_recursive_line_44_to_45_0_#t~mem7_5_fresh_1| 4294967296) 2147483647) (mod |v_func_to_recursive_line_44_to_45_0_#t~mem7_5_fresh_1| 4294967296) (+ (mod |v_func_to_recursive_line_44_to_45_0_#t~mem7_5_fresh_1| 4294967296) (- 4294967296))) 4)))) (= |v_func_to_recursive_line_44_to_45_0_#t~mem8_5_fresh_1| (select (select |#memory_int#1_11| func_to_recursive_line_44_to_45_0_~index.base_12) func_to_recursive_line_44_to_45_0_~index.offset_12))) :named ssa_13))
(assert (! (and (not |func_to_recursive_line_44_to_45_0_#t~short12_13|) (= |v_func_to_recursive_line_44_to_45_0_#t~mem11_4_fresh_1| (select (select |#memory_int#2_5| func_to_recursive_line_44_to_45_0_~array.base_12) (+ func_to_recursive_line_44_to_45_0_~array.offset_12 (* (ite (<= (mod |v_func_to_recursive_line_44_to_45_0_#t~mem10_4_fresh_1| 4294967296) 2147483647) (mod |v_func_to_recursive_line_44_to_45_0_#t~mem10_4_fresh_1| 4294967296) (+ (mod |v_func_to_recursive_line_44_to_45_0_#t~mem10_4_fresh_1| 4294967296) (- 4294967296))) 4)))) (or (and |func_to_recursive_line_44_to_45_0_#t~short12_14| (= (mod |v_func_to_recursive_line_44_to_45_0_#t~mem11_4_fresh_1| 4294967296) 0)) (and (not |func_to_recursive_line_44_to_45_0_#t~short12_14|) (not (= (mod |v_func_to_recursive_line_44_to_45_0_#t~mem11_4_fresh_1| 4294967296) 0)))) (= (select (select |#memory_int#1_11| func_to_recursive_line_44_to_45_0_~index.base_12) func_to_recursive_line_44_to_45_0_~index.offset_12) |v_func_to_recursive_line_44_to_45_0_#t~mem10_4_fresh_1|)) :named ssa_14))
(assert (! true :named ssa_15_GlobVarAssigCall))
(assert (! (= |__VERIFIER_assert_#in~cond_15| (ite |func_to_recursive_line_44_to_45_0_#t~short12_14| 1 0)) :named ssa_15_LocVarAssigCall))
(assert (! true :named ssa_15_OldVarAssigCall))
(assert (! (= __VERIFIER_assert_~cond_16 |__VERIFIER_assert_#in~cond_15|) :named ssa_16))
(assert (! (= __VERIFIER_assert_~cond_16 0) :named ssa_17))
(assert (! true :named ssa_18))
(check-sat)
(get-interpolants (and ssa_0_LocVarAssigCall ssa_precond ssa_0_GlobVarAssigCall ssa_0_OldVarAssigCall ssa_2_return ssa_1) (and ssa_3_OldVarAssigCall ssa_3_LocVarAssigCall ssa_3_GlobVarAssigCall) ssa_4 (and ssa_5_LocVarAssigCall ssa_5_GlobVarAssigCall ssa_7 ssa_6 ssa_8 ssa_5_OldVarAssigCall ssa_9_return) ssa_10 (and ssa_11_LocVarAssigCall ssa_11_OldVarAssigCall ssa_11_GlobVarAssigCall) ssa_12 ssa_13 ssa_14 (and ssa_15_LocVarAssigCall ssa_15_GlobVarAssigCall ssa_15_OldVarAssigCall) ssa_16 ssa_17 (and ssa_postcond ssa_18))
(echo "finished trace check")
(pop 1)
(echo "starting trace check")
(push 1)
(declare-fun |#memory_int#0_-2| () (Array Int (Array Int Int)))
(declare-fun |#valid_-2| () (Array Int Int))
(declare-fun |#length_-2| () (Array Int Int))
(declare-fun |#memory_int#2_-2| () (Array Int (Array Int Int)))
(declare-fun |#memory_int#1_-2| () (Array Int (Array Int Int)))
(declare-fun |#memory_int#3_-2| () (Array Int (Array Int Int)))
(declare-fun |old(#memory_int#0)_-2| () (Array Int (Array Int Int)))
(declare-fun |old(#valid)_-2| () (Array Int Int))
(declare-fun |old(#length)_-2| () (Array Int Int))
(declare-fun |old(#memory_int#2)_-2| () (Array Int (Array Int Int)))
(declare-fun |old(#memory_int#1)_-2| () (Array Int (Array Int Int)))
(declare-fun |old(#memory_int#3)_-2| () (Array Int (Array Int Int)))
(declare-fun |#StackHeapBarrier_-1| () Int)
(assert (! true :named ssa_precond))
(assert (! (not true) :named ssa_postcond))
(assert (! (and (= (select |#valid_-2| 1) 1) (= (select |#valid_-2| 2) 1) (< 0 |#StackHeapBarrier_-1|) (= 29 (select |#length_-2| 2)) (= (select |#valid_-2| 0) 0) (= (select (select |#memory_int#0_-2| 1) 1) 0) (= (select (select |#memory_int#0_-2| 1) 0) 48) (= (select |#length_-2| 1) 2)) :named ssa_0))
(assert (! true :named ssa_1_return))
(assert (! true :named ssa_-2_PendingContext))
(assert (! true :named ssa_-2_LocVarAssignPendingContext))
(assert (! true :named ssa_-2_OldVarAssignPendingContext))
(check-sat)
(get-interpolants (and ssa_0 ssa_precond) (and ssa_-2_PendingContext ssa_-2_LocVarAssignPendingContext ssa_-2_OldVarAssignPendingContext ssa_1_return ssa_postcond))
(echo "finished trace check")
(pop 1)
(echo "starting trace check")
(push 1)
(declare-fun |#valid_-2| () (Array Int Int))
(declare-fun |#length_-2| () (Array Int Int))
(declare-fun |#memory_int#2_-2| () (Array Int (Array Int Int)))
(declare-fun |#memory_int#1_-2| () (Array Int (Array Int Int)))
(declare-fun |#memory_int#3_-2| () (Array Int (Array Int Int)))
(declare-fun |old(#valid)_-2| () (Array Int Int))
(declare-fun |old(#length)_-2| () (Array Int Int))
(declare-fun |old(#memory_int#2)_-2| () (Array Int (Array Int Int)))
(declare-fun |old(#memory_int#1)_-2| () (Array Int (Array Int Int)))
(declare-fun |old(#memory_int#3)_-2| () (Array Int (Array Int Int)))
(declare-fun |main_~#index~0.offset_-2| () Int)
(declare-fun |main_~#index~0.base_-2| () Int)
(declare-fun |main_~#tmp~0.offset_-2| () Int)
(declare-fun |main_~#array~0.base_-2| () Int)
(declare-fun |main_~#array~0.offset_-2| () Int)
(declare-fun |main_~#tmp~0.base_-2| () Int)
(declare-fun |old(#memory_int#2)_-1| () (Array Int (Array Int Int)))
(declare-fun |old(#memory_int#1)_-1| () (Array Int (Array Int Int)))
(declare-fun |old(#memory_int#3)_-1| () (Array Int (Array Int Int)))
(declare-fun |main_~#tmp~0.offset_-1| () Int)
(declare-fun |func_to_recursive_line_38_to_41_0_#in~tmp.offset_-1| () Int)
(declare-fun |func_to_recursive_line_38_to_41_0_#in~array.base_-1| () Int)
(declare-fun |func_to_recursive_line_38_to_41_0_#in~array.offset_-1| () Int)
(declare-fun |main_~#array~0.base_-1| () Int)
(declare-fun |main_~#index~0.offset_-1| () Int)
(declare-fun |func_to_recursive_line_38_to_41_0_#in~index.base_-1| () Int)
(declare-fun |func_to_recursive_line_38_to_41_0_#in~index.offset_-1| () Int)
(declare-fun |main_~#array~0.offset_-1| () Int)
(declare-fun |main_~#tmp~0.base_-1| () Int)
(declare-fun |func_to_recursive_line_38_to_41_0_#in~tmp.base_-1| () Int)
(declare-fun |main_~#index~0.base_-1| () Int)
(declare-fun |#memory_int#2_-1| () (Array Int (Array Int Int)))
(declare-fun |#memory_int#1_-1| () (Array Int (Array Int Int)))
(declare-fun |#memory_int#3_-1| () (Array Int (Array Int Int)))
(declare-fun func_to_recursive_line_38_to_41_0_~array.base_0 () Int)
(declare-fun func_to_recursive_line_38_to_41_0_~index.base_0 () Int)
(declare-fun |func_to_recursive_line_38_to_41_0_#t~mem1_0| () Int)
(declare-fun func_to_recursive_line_38_to_41_0_~tmp.offset_0 () Int)
(declare-fun func_to_recursive_line_38_to_41_0_~array.offset_0 () Int)
(declare-fun func_to_recursive_line_38_to_41_0_~index.offset_0 () Int)
(declare-fun func_to_recursive_line_38_to_41_0_~tmp.base_0 () Int)
(declare-fun |func_to_recursive_line_38_to_41_0_#t~mem1_1| () Int)
(assert (! (and (= |#memory_int#2_-1| |old(#memory_int#2)_-1|) (= |#memory_int#1_-1| |old(#memory_int#1)_-1|) (= |#memory_int#3_-1| |old(#memory_int#3)_-1|)) :named ssa_precond))
(assert (! (not false) :named ssa_postcond))
(assert (! (and (= func_to_recursive_line_38_to_41_0_~array.base_0 |func_to_recursive_line_38_to_41_0_#in~array.base_-1|) (= func_to_recursive_line_38_to_41_0_~tmp.offset_0 |func_to_recursive_line_38_to_41_0_#in~tmp.offset_-1|) (= func_to_recursive_line_38_to_41_0_~index.base_0 |func_to_recursive_line_38_to_41_0_#in~index.base_-1|) (= func_to_recursive_line_38_to_41_0_~tmp.base_0 |func_to_recursive_line_38_to_41_0_#in~tmp.base_-1|) (= func_to_recursive_line_38_to_41_0_~array.offset_0 |func_to_recursive_line_38_to_41_0_#in~array.offset_-1|) (= (select (select |#memory_int#1_-1| func_to_recursive_line_38_to_41_0_~index.base_0) func_to_recursive_line_38_to_41_0_~index.offset_0) |func_to_recursive_line_38_to_41_0_#t~mem1_0|) (= func_to_recursive_line_38_to_41_0_~index.offset_0 |func_to_recursive_line_38_to_41_0_#in~index.offset_-1|)) :named ssa_0))
(assert (! (<= 10000 (mod |func_to_recursive_line_38_to_41_0_#t~mem1_0| 4294967296)) :named ssa_1))
(assert (! true :named ssa_2))
(assert (! true :named ssa_3_return))
(assert (! (= (select (select |#memory_int#1_-2| |main_~#index~0.base_-2|) |main_~#index~0.offset_-2|) 0) :named ssa_-2_PendingContext))
(assert (! (and (= |func_to_recursive_line_38_to_41_0_#in~tmp.offset_-1| |main_~#tmp~0.offset_-2|) (= |func_to_recursive_line_38_to_41_0_#in~tmp.base_-1| |main_~#tmp~0.base_-2|) (= |func_to_recursive_line_38_to_41_0_#in~index.base_-1| |main_~#index~0.base_-2|) (= |func_to_recursive_line_38_to_41_0_#in~index.offset_-1| |main_~#index~0.offset_-2|) (= |func_to_recursive_line_38_to_41_0_#in~array.base_-1| |main_~#array~0.base_-2|) (= |func_to_recursive_line_38_to_41_0_#in~array.offset_-1| |main_~#array~0.offset_-2|)) :named ssa_-2_LocVarAssignPendingContext))
(assert (! (and (= |old(#memory_int#2)_-1| |#memory_int#2_-2|) (= |old(#memory_int#3)_-1| |#memory_int#3_-2|) (= |old(#memory_int#1)_-1| |#memory_int#1_-2|)) :named ssa_-2_OldVarAssignPendingContext))
(check-sat)
(get-interpolants (and ssa_0 ssa_precond) ssa_1 ssa_2 (and ssa_-2_PendingContext ssa_3_return ssa_-2_LocVarAssignPendingContext ssa_-2_OldVarAssignPendingContext ssa_postcond))
(echo "finished trace check")
(pop 1)
(exit)
